
Gurobi 12.0.0 (mac64[arm]) logging started Tue Dec 31 16:43:30 2024

Set parameter LogFile to value "gurobi.log"

Gurobi 12.0.0 (mac64[arm]) logging started Tue Dec 31 16:43:33 2024

Set parameter LogFile to value "gurobi.log"

Gurobi 12.0.0 (mac64[arm]) logging started Tue Dec 31 16:43:36 2024

Set parameter LogFile to value "gurobi.log"
